NAME:  as10
TYPE: ATSP
COMMENT: 11 city problem (Repetto)
DIMENSION:  11
EDGE_WEIGHT_TYPE: EXPLICIT
EDGE_WEIGHT_FORMAT: FULL_MATRIX 
EDGE_WEIGHT_SECTION
259 147 233 169  56 190  25 299   6 280  18
 13 149  12 270 115  25 160  49  85  97  67
 66 109   9  98 229 287 148 262 208 111 129
272 212 236 254 289 101 184  93 225 130 279
261 267  25 125 142  23 195 213 188  92 134
196 147 223 134  79 218  89  41 145 180  47
193  98  64 164  49 265 221 203 298 129 131
 54  81  40 253 287 221  70  61 218 234  46
 63 220 291 250 291  84 131 238 168  76 289
 69 263 124 278 176 241  20 128  21  38 262
286 239 169  30 103 231  20 144  88 172 293
EOF
